p cnf 312 913
-9 -5 0
-9 -6 0
9 5 6 0
-10 -7 0
-10 8 0
10 7 -8 0
-11 9 0
-11 10 0
11 -9 -10 0
-12 -1 0
-12 -3 0
12 1 3 0
-13 -2 0
-13 -4 0
13 2 4 0
-14 12 0
-14 13 0
14 -12 -13 0
-15 11 0
-15 14 0
15 -11 -14 0
-16 1 0
-16 -3 0
16 -1 3 0
-17 13 0
-17 16 0
17 -13 -16 0
-18 11 0
-18 17 0
18 -11 -17 0
-19 2 0
-19 -4 0
19 -2 4 0
-20 12 0
-20 19 0
20 -12 -19 0
-21 11 0
-21 20 0
21 -11 -20 0
-22 16 0
-22 19 0
22 -16 -19 0
-23 11 0
-23 22 0
23 -11 -22 0
-24 -1 0
-24 3 0
24 1 -3 0
-25 13 0
-25 24 0
25 -13 -24 0
-26 11 0
-26 25 0
26 -11 -25 0
-27 1 0
-27 3 0
27 -1 -3 0
-28 13 0
-28 27 0
28 -13 -27 0
-29 11 0
-29 28 0
29 -11 -28 0
-30 19 0
-30 24 0
30 -19 -24 0
-31 11 0
-31 30 0
31 -11 -30 0
-32 19 0
-32 27 0
32 -19 -27 0
-33 11 0
-33 32 0
33 -11 -32 0
-34 -2 0
-34 4 0
34 2 -4 0
-35 12 0
-35 34 0
35 -12 -34 0
-36 11 0
-36 35 0
36 -11 -35 0
-37 16 0
-37 34 0
37 -16 -34 0
-38 11 0
-38 37 0
38 -11 -37 0
-39 2 0
-39 4 0
39 -2 -4 0
-40 12 0
-40 39 0
40 -12 -39 0
-41 11 0
-41 40 0
41 -11 -40 0
-42 16 0
-42 39 0
42 -16 -39 0
-43 11 0
-43 42 0
43 -11 -42 0
-44 24 0
-44 34 0
44 -24 -34 0
-45 11 0
-45 44 0
45 -11 -44 0
-46 27 0
-46 34 0
46 -27 -34 0
-47 11 0
-47 46 0
47 -11 -46 0
-48 24 0
-48 39 0
48 -24 -39 0
-49 11 0
-49 48 0
49 -11 -48 0
-50 27 0
-50 39 0
50 -27 -39 0
-51 11 0
-51 50 0
51 -11 -50 0
-52 5 0
-52 -6 0
52 -5 6 0
-53 10 0
-53 52 0
53 -10 -52 0
-54 14 0
-54 53 0
54 -14 -53 0
-55 17 0
-55 53 0
55 -17 -53 0
-56 20 0
-56 53 0
56 -20 -53 0
-57 22 0
-57 53 0
57 -22 -53 0
-58 25 0
-58 53 0
58 -25 -53 0
-59 28 0
-59 53 0
59 -28 -53 0
-60 30 0
-60 53 0
60 -30 -53 0
-61 32 0
-61 53 0
61 -32 -53 0
-62 35 0
-62 53 0
62 -35 -53 0
-63 37 0
-63 53 0
63 -37 -53 0
-64 40 0
-64 53 0
64 -40 -53 0
-65 42 0
-65 53 0
65 -42 -53 0
-66 44 0
-66 53 0
66 -44 -53 0
-67 46 0
-67 53 0
67 -46 -53 0
-68 48 0
-68 53 0
68 -48 -53 0
-69 50 0
-69 53 0
69 -50 -53 0
-70 -5 0
-70 6 0
70 5 -6 0
-71 10 0
-71 70 0
71 -10 -70 0
-72 14 0
-72 71 0
72 -14 -71 0
-73 17 0
-73 71 0
73 -17 -71 0
-74 20 0
-74 71 0
74 -20 -71 0
-75 22 0
-75 71 0
75 -22 -71 0
-76 25 0
-76 71 0
76 -25 -71 0
-77 28 0
-77 71 0
77 -28 -71 0
-78 30 0
-78 71 0
78 -30 -71 0
-79 32 0
-79 71 0
79 -32 -71 0
-80 35 0
-80 71 0
80 -35 -71 0
-81 37 0
-81 71 0
81 -37 -71 0
-82 40 0
-82 71 0
82 -40 -71 0
-83 42 0
-83 71 0
83 -42 -71 0
-84 44 0
-84 71 0
84 -44 -71 0
-85 46 0
-85 71 0
85 -46 -71 0
-86 48 0
-86 71 0
86 -48 -71 0
-87 50 0
-87 71 0
87 -50 -71 0
-88 5 0
-88 6 0
88 -5 -6 0
-89 10 0
-89 88 0
89 -10 -88 0
-90 14 0
-90 89 0
90 -14 -89 0
-91 17 0
-91 89 0
91 -17 -89 0
-92 20 0
-92 89 0
92 -20 -89 0
-93 22 0
-93 89 0
93 -22 -89 0
-94 25 0
-94 89 0
94 -25 -89 0
-95 28 0
-95 89 0
95 -28 -89 0
-96 30 0
-96 89 0
96 -30 -89 0
-97 32 0
-97 89 0
97 -32 -89 0
-98 35 0
-98 89 0
98 -35 -89 0
-99 37 0
-99 89 0
99 -37 -89 0
-100 40 0
-100 89 0
100 -40 -89 0
-101 42 0
-101 89 0
101 -42 -89 0
-102 44 0
-102 89 0
102 -44 -89 0
-103 46 0
-103 89 0
103 -46 -89 0
-104 48 0
-104 89 0
104 -48 -89 0
-105 50 0
-105 89 0
105 -50 -89 0
-106 7 0
-106 8 0
106 -7 -8 0
-107 9 0
-107 106 0
107 -9 -106 0
-108 14 0
-108 107 0
108 -14 -107 0
-109 17 0
-109 107 0
109 -17 -107 0
-110 20 0
-110 107 0
110 -20 -107 0
-111 22 0
-111 107 0
111 -22 -107 0
-112 25 0
-112 107 0
112 -25 -107 0
-113 28 0
-113 107 0
113 -28 -107 0
-114 30 0
-114 107 0
114 -30 -107 0
-115 32 0
-115 107 0
115 -32 -107 0
-116 35 0
-116 107 0
116 -35 -107 0
-117 37 0
-117 107 0
117 -37 -107 0
-118 40 0
-118 107 0
118 -40 -107 0
-119 42 0
-119 107 0
119 -42 -107 0
-120 44 0
-120 107 0
120 -44 -107 0
-121 46 0
-121 107 0
121 -46 -107 0
-122 48 0
-122 107 0
122 -48 -107 0
-123 50 0
-123 107 0
123 -50 -107 0
-124 52 0
-124 106 0
124 -52 -106 0
-125 14 0
-125 124 0
125 -14 -124 0
-126 17 0
-126 124 0
126 -17 -124 0
-127 20 0
-127 124 0
127 -20 -124 0
-128 22 0
-128 124 0
128 -22 -124 0
-129 25 0
-129 124 0
129 -25 -124 0
-130 28 0
-130 124 0
130 -28 -124 0
-131 30 0
-131 124 0
131 -30 -124 0
-132 32 0
-132 124 0
132 -32 -124 0
-133 35 0
-133 124 0
133 -35 -124 0
-134 37 0
-134 124 0
134 -37 -124 0
-135 40 0
-135 124 0
135 -40 -124 0
-136 42 0
-136 124 0
136 -42 -124 0
-137 44 0
-137 124 0
137 -44 -124 0
-138 46 0
-138 124 0
138 -46 -124 0
-139 48 0
-139 124 0
139 -48 -124 0
-140 50 0
-140 124 0
140 -50 -124 0
-141 70 0
-141 106 0
141 -70 -106 0
-142 14 0
-142 141 0
142 -14 -141 0
-143 17 0
-143 141 0
143 -17 -141 0
-144 20 0
-144 141 0
144 -20 -141 0
-145 22 0
-145 141 0
145 -22 -141 0
-146 25 0
-146 141 0
146 -25 -141 0
-147 28 0
-147 141 0
147 -28 -141 0
-148 30 0
-148 141 0
148 -30 -141 0
-149 32 0
-149 141 0
149 -32 -141 0
-150 35 0
-150 141 0
150 -35 -141 0
-151 37 0
-151 141 0
151 -37 -141 0
-152 40 0
-152 141 0
152 -40 -141 0
-153 42 0
-153 141 0
153 -42 -141 0
-154 44 0
-154 141 0
154 -44 -141 0
-155 46 0
-155 141 0
155 -46 -141 0
-156 48 0
-156 141 0
156 -48 -141 0
-157 50 0
-157 141 0
157 -50 -141 0
-158 88 0
-158 106 0
158 -88 -106 0
-159 14 0
-159 158 0
159 -14 -158 0
-160 17 0
-160 158 0
160 -17 -158 0
-161 20 0
-161 158 0
161 -20 -158 0
-162 22 0
-162 158 0
162 -22 -158 0
-163 25 0
-163 158 0
163 -25 -158 0
-164 28 0
-164 158 0
164 -28 -158 0
-165 30 0
-165 158 0
165 -30 -158 0
-166 32 0
-166 158 0
166 -32 -158 0
-167 35 0
-167 158 0
167 -35 -158 0
-168 37 0
-168 158 0
168 -37 -158 0
-169 40 0
-169 158 0
169 -40 -158 0
-170 42 0
-170 158 0
170 -42 -158 0
-171 44 0
-171 158 0
171 -44 -158 0
-172 46 0
-172 158 0
172 -46 -158 0
-173 48 0
-173 158 0
173 -48 -158 0
-174 50 0
-174 158 0
174 -50 -158 0
-175 -7 0
-175 -8 0
175 7 8 0
-176 9 0
-176 175 0
176 -9 -175 0
-177 14 0
-177 176 0
177 -14 -176 0
-178 17 0
-178 176 0
178 -17 -176 0
-179 20 0
-179 176 0
179 -20 -176 0
-180 22 0
-180 176 0
180 -22 -176 0
-181 25 0
-181 176 0
181 -25 -176 0
-182 28 0
-182 176 0
182 -28 -176 0
-183 30 0
-183 176 0
183 -30 -176 0
-184 32 0
-184 176 0
184 -32 -176 0
-185 35 0
-185 176 0
185 -35 -176 0
-186 37 0
-186 176 0
186 -37 -176 0
-187 40 0
-187 176 0
187 -40 -176 0
-188 42 0
-188 176 0
188 -42 -176 0
-189 44 0
-189 176 0
189 -44 -176 0
-190 46 0
-190 176 0
190 -46 -176 0
-191 48 0
-191 176 0
191 -48 -176 0
-192 50 0
-192 176 0
192 -50 -176 0
-193 52 0
-193 175 0
193 -52 -175 0
-194 14 0
-194 193 0
194 -14 -193 0
-195 17 0
-195 193 0
195 -17 -193 0
-196 20 0
-196 193 0
196 -20 -193 0
-197 22 0
-197 193 0
197 -22 -193 0
-198 25 0
-198 193 0
198 -25 -193 0
-199 28 0
-199 193 0
199 -28 -193 0
-200 30 0
-200 193 0
200 -30 -193 0
-201 32 0
-201 193 0
201 -32 -193 0
-202 35 0
-202 193 0
202 -35 -193 0
-203 37 0
-203 193 0
203 -37 -193 0
-204 40 0
-204 193 0
204 -40 -193 0
-205 42 0
-205 193 0
205 -42 -193 0
-206 44 0
-206 193 0
206 -44 -193 0
-207 46 0
-207 193 0
207 -46 -193 0
-208 48 0
-208 193 0
208 -48 -193 0
-209 50 0
-209 193 0
209 -50 -193 0
-210 70 0
-210 175 0
210 -70 -175 0
-211 14 0
-211 210 0
211 -14 -210 0
-212 17 0
-212 210 0
212 -17 -210 0
-213 20 0
-213 210 0
213 -20 -210 0
-214 22 0
-214 210 0
214 -22 -210 0
-215 25 0
-215 210 0
215 -25 -210 0
-216 28 0
-216 210 0
216 -28 -210 0
-217 30 0
-217 210 0
217 -30 -210 0
-218 32 0
-218 210 0
218 -32 -210 0
-219 35 0
-219 210 0
219 -35 -210 0
-220 37 0
-220 210 0
220 -37 -210 0
-221 40 0
-221 210 0
221 -40 -210 0
-222 42 0
-222 210 0
222 -42 -210 0
-223 44 0
-223 210 0
223 -44 -210 0
-224 46 0
-224 210 0
224 -46 -210 0
-225 48 0
-225 210 0
225 -48 -210 0
-226 50 0
-226 210 0
226 -50 -210 0
-227 88 0
-227 175 0
227 -88 -175 0
-228 14 0
-228 227 0
228 -14 -227 0
-229 17 0
-229 227 0
229 -17 -227 0
-230 20 0
-230 227 0
230 -20 -227 0
-231 22 0
-231 227 0
231 -22 -227 0
-232 25 0
-232 227 0
232 -25 -227 0
-233 28 0
-233 227 0
233 -28 -227 0
-234 30 0
-234 227 0
234 -30 -227 0
-235 32 0
-235 227 0
235 -32 -227 0
-236 35 0
-236 227 0
236 -35 -227 0
-237 37 0
-237 227 0
237 -37 -227 0
-238 40 0
-238 227 0
238 -40 -227 0
-239 42 0
-239 227 0
239 -42 -227 0
-240 44 0
-240 227 0
240 -44 -227 0
-241 46 0
-241 227 0
241 -46 -227 0
-242 48 0
-242 227 0
242 -48 -227 0
-243 50 0
-243 227 0
243 -50 -227 0
-244 7 0
-244 -8 0
244 -7 8 0
-245 9 0
-245 244 0
245 -9 -244 0
-246 14 0
-246 245 0
246 -14 -245 0
-247 17 0
-247 245 0
247 -17 -245 0
-248 20 0
-248 245 0
248 -20 -245 0
-249 22 0
-249 245 0
249 -22 -245 0
-250 25 0
-250 245 0
250 -25 -245 0
-251 28 0
-251 245 0
251 -28 -245 0
-252 30 0
-252 245 0
252 -30 -245 0
-253 32 0
-253 245 0
253 -32 -245 0
-254 35 0
-254 245 0
254 -35 -245 0
-255 37 0
-255 245 0
255 -37 -245 0
-256 40 0
-256 245 0
256 -40 -245 0
-257 42 0
-257 245 0
257 -42 -245 0
-258 44 0
-258 245 0
258 -44 -245 0
-259 46 0
-259 245 0
259 -46 -245 0
-260 48 0
-260 245 0
260 -48 -245 0
-261 50 0
-261 245 0
261 -50 -245 0
-262 52 0
-262 244 0
262 -52 -244 0
-263 14 0
-263 262 0
263 -14 -262 0
-264 17 0
-264 262 0
264 -17 -262 0
-265 20 0
-265 262 0
265 -20 -262 0
-266 22 0
-266 262 0
266 -22 -262 0
-267 25 0
-267 262 0
267 -25 -262 0
-268 28 0
-268 262 0
268 -28 -262 0
-269 30 0
-269 262 0
269 -30 -262 0
-270 32 0
-270 262 0
270 -32 -262 0
-271 35 0
-271 262 0
271 -35 -262 0
-272 37 0
-272 262 0
272 -37 -262 0
-273 40 0
-273 262 0
273 -40 -262 0
-274 42 0
-274 262 0
274 -42 -262 0
-275 44 0
-275 262 0
275 -44 -262 0
-276 46 0
-276 262 0
276 -46 -262 0
-277 48 0
-277 262 0
277 -48 -262 0
-278 50 0
-278 262 0
278 -50 -262 0
-279 70 0
-279 244 0
279 -70 -244 0
-280 14 0
-280 279 0
280 -14 -279 0
-281 17 0
-281 279 0
281 -17 -279 0
-282 20 0
-282 279 0
282 -20 -279 0
-283 22 0
-283 279 0
283 -22 -279 0
-284 25 0
-284 279 0
284 -25 -279 0
-285 28 0
-285 279 0
285 -28 -279 0
-286 30 0
-286 279 0
286 -30 -279 0
-287 32 0
-287 279 0
287 -32 -279 0
-288 35 0
-288 279 0
288 -35 -279 0
-289 37 0
-289 279 0
289 -37 -279 0
-290 40 0
-290 279 0
290 -40 -279 0
-291 42 0
-291 279 0
291 -42 -279 0
-292 44 0
-292 279 0
292 -44 -279 0
-293 46 0
-293 279 0
293 -46 -279 0
-294 48 0
-294 279 0
294 -48 -279 0
-295 50 0
-295 279 0
295 -50 -279 0
-296 88 0
-296 244 0
296 -88 -244 0
-297 14 0
-297 296 0
297 -14 -296 0
-298 17 0
-298 296 0
298 -17 -296 0
-299 20 0
-299 296 0
299 -20 -296 0
-300 22 0
-300 296 0
300 -22 -296 0
-301 25 0
-301 296 0
301 -25 -296 0
-302 28 0
-302 296 0
302 -28 -296 0
-303 30 0
-303 296 0
303 -30 -296 0
-304 32 0
-304 296 0
304 -32 -296 0
-305 35 0
-305 296 0
305 -35 -296 0
-306 37 0
-306 296 0
306 -37 -296 0
-307 40 0
-307 296 0
307 -40 -296 0
-308 42 0
-308 296 0
308 -42 -296 0
-309 44 0
-309 296 0
309 -44 -296 0
-310 46 0
-310 296 0
310 -46 -296 0
-311 48 0
-311 296 0
311 -48 -296 0
-312 50 0
-312 296 0
312 -50 -296 0
312 0
